% File represents an instance of a Composite Structure problem to be solved by a CP framework
% Created on 2025-03-26 10:41:30.246
T = 56;
n = 25;
m = 40;
edges = [(2, 1),
(6, 7),
(11, 12),
(17, 16),
(22, 21),
(3, 2),
(8, 7),
(13, 12),
(18, 17),
(23, 22),
(3, 4),
(9, 8),
(14, 13),
(18, 19),
(24, 23),
(4, 5),
(9, 10),
(14, 15),
(19, 20),
(24, 25),
(6, 1),
(11, 6),
(11, 16),
(16, 21),
(2, 7),
(12, 7),
(17, 12),
(17, 22),
(3, 8),
(13, 8),
(18, 13),
(18, 23),
(9, 4),
(14, 9),
(19, 14),
(24, 19),
(10, 5),
(15, 10),
(20, 15),
(25, 20)];
counts = [|14, 2, 14, 10,
|14, 4, 14, 10,
|14, 4, 14, 12,
|14, 2, 14, 10,
|14, 2, 14, 6,
|16, 2, 16, 12,
|14, 2, 14, 10,
|14, 2, 14, 12,
|14, 2, 14, 14,
|14, 2, 14, 12,
|16, 2, 16, 14,
|16, 2, 16, 10,
|16, 2, 16, 14,
|16, 2, 16, 16,
|14, 2, 14, 14,
|16, 2, 16, 12,
|16, 2, 16, 16,
|16, 4, 16, 18,
|16, 2, 16, 18,
|16, 2, 16, 16,
|14, 2, 14, 10,
|14, 2, 14, 16,
|16, 4, 16, 16,
|16, 4, 16, 20,
|16, 2, 16, 18|];
